NAME : covtype.pruned_local_4.0.tour
COMMENT : Length = 0
TYPE : TOUR
DIMENSION : 54
TOUR_SECTION
5
21
1
22
8
51
52
54
53
2
17
18
16
15
12
39
7
50
49
48
13
40
38
37
36
35
3
41
43
45
47
46
44
42
9
28
30
31
33
34
32
11
23
25
27
26
24
20
19
14
29
4
6
10
-1
EOF
